NAME : traveling-santa-2018-prime-paths.30205.tour
COMMENT : Length = 30205
COMMENT : Found by LKH [Keld Helsgaun] Sun Jun 12 20:00:23 2022
TYPE : TOUR
DIMENSION : 100
TOUR_SECTION
1
11
16
96
52
88
64
54
78
18
92
6
50
51
100
94
21
4
17
86
31
34
95
82
26
55
53
29
14
87
9
61
74
49
57
7
63
22
35
90
23
76
2
8
97
59
25
41
72
30
84
45
13
27
67
38
68
20
81
58
15
56
77
99
62
69
39
60
32
71
28
42
33
19
47
44
5
89
24
85
79
83
36
70
65
46
75
93
73
80
43
98
12
10
37
3
40
91
48
66
-1
EOF
